Version identifier: 12.10.0.0 | 2019-11-26 | 843d4de
CPXPARAM_WorkMem                                 28672
Tried aggregator 2 times.
MIP Presolve eliminated 15 rows and 0 columns.
MIP Presolve added 28 rows and 0 columns.
Aggregator did 40 substitutions.
Reduced MIP has 75 rows, 70 columns, and 304 nonzeros.
Reduced MIP has 70 binaries, 0 generals, 0 SOSs, and 0 indicators.
Presolve time = 0,00 sec. (0,63 ticks)
Found incumbent of value 328,000000 after 0,00 sec. (0,72 ticks)
Probing time = 0,00 sec. (0,36 ticks)
Tried aggregator 1 time.
Detecting symmetries...
Reduced MIP has 75 rows, 70 columns, and 304 nonzeros.
Reduced MIP has 70 binaries, 0 generals, 0 SOSs, and 0 indicators.
Presolve time = 0,00 sec. (0,25 ticks)
Probing time = 0,00 sec. (0,36 ticks)
Clique table members: 272.
MIP emphasis: balance optimality and feasibility.
MIP search method: dynamic search.
Parallel mode: deterministic, using up to 16 threads.
Root relaxation solution time = 0,00 sec. (0,17 ticks)

        Nodes                                         Cuts/
   Node  Left     Objective  IInf  Best Integer    Best Bound    ItCnt     Gap

*     0+    0                          328,0000        0,0000           100,00%
*     0+    0                          319,0000        0,0000           100,00%
      0     0      176,0000    68      319,0000      176,0000       32   44,83%
      0     0      237,0756    68      319,0000     Cuts: 119      116   25,68%
*     0+    0                          315,0000      237,0756            24,74%
      0     0      250,5805    68      315,0000     Cuts: 118      152   20,45%
*     0+    0                          306,0000      250,5805            18,11%
      0     0      251,3824    68      306,0000      Cuts: 10      164   17,85%
      0     0      252,1739    68      306,0000      Cuts: 11      177   17,59%
      0     0      252,6301    68      306,0000   ZeroHalf: 6      190   17,44%
Detecting symmetries...
      0     0      253,2871    68      306,0000      Cuts: 13      213   17,23%
      0     0      253,5473    68      306,0000      Cuts: 29      217   17,14%
      0     0      253,9414    68      306,0000   ZeroHalf: 5      239   17,01%
      0     0      254,0277    68      306,0000      Cuts: 18      247   16,98%
      0     0      254,0843    68      306,0000      Cuts: 10      260   16,97%
      0     0      254,2554    68      306,0000      Cuts: 61      277   16,91%
      0     0      254,4733    68      306,0000      Cuts: 34      291   16,84%
      0     0      254,5132    68      306,0000      Cuts: 13      299   16,83%
      0     0      254,5585    68      306,0000      Cuts: 16      308   16,81%
      0     0      254,6202    68      306,0000      Cuts: 17      318   16,79%
      0     0      254,6576    68      306,0000      Cuts: 31      330   16,78%
      0     0      254,7675    68      306,0000      Cuts: 23      352   16,74%
      0     0      254,8027    68      306,0000      Cuts: 38      359   16,73%
      0     0        cutoff            306,0000      306,0000      359    0,00%
Elapsed time = 0,05 sec. (29,08 ticks, tree = 0,01 MB, solutions = 4)

Clique cuts applied:  3
Cover cuts applied:  1
Implied bound cuts applied:  27
Mixed integer rounding cuts applied:  4
Zero-half cuts applied:  11
Gomory fractional cuts applied:  3

Root node processing (before b&c):
  Real time             =    0,05 sec. (29,09 ticks)
Parallel b&c, 16 threads:
  Real time             =    0,00 sec. (0,00 ticks)
  Sync time (average)   =    0,00 sec.
  Wait time (average)   =    0,00 sec.
                          ------------
Total (root+branch&cut) =    0,05 sec. (29,09 ticks)
